32	0

0	2	2	4
2	2	3	7
4	1	5
4	2	5	7
1	1	6
8	1	8
9	1	8
4	2	9	10
2	1	11
1	1	11
8	1	12
2	2	13	15
3	1	14
7	1	16
6	1	16
6	2	17	18
4	1	19
3	1	19
6	2	20	22
4	1	21
10	1	23
6	1	23
7	1	24
5	1	25
1	1	26
3	1	27
1	1	28
6	1	29
7	1	30
4	1	31
5	1	32
0	0
